n_res = 4;
rc = [ 37, 45, 27, 17 ];
n_tasks = 30;
d = [ 8, 2, 10, 1, 10, 2, 5, 2, 6, 6, 3, 3, 1, 8, 6, 9, 10, 7, 9, 5, 5, 4, 3, 4, 10, 9, 7, 7, 7, 8 ];
rr = [| 37, 37, 37, 37, 37, 37, 37, 37, 37, 37, 37, 37, 37, 37, 37, 37, 37, 37, 37, 37, 37, 37, 37, 37, 37, 37, 37, 37, 37, 37
      | 45, 45, 45, 45, 45, 45, 45, 45, 45, 45, 45, 45, 45, 45, 45, 45, 45, 45, 45, 45, 45, 45, 45, 45, 45, 45, 45, 45, 45, 45
      | 27, 27, 27, 27, 27, 27, 27, 27, 27, 27, 27, 27, 27, 27, 27, 27, 27, 27, 27, 27, 27, 27, 27, 27, 27, 27, 27, 27, 27, 27
      | 17, 17, 17, 17, 17, 17, 17, 17, 17, 17, 17, 17, 17, 17, 17, 17, 17, 17, 17, 17, 17, 17, 17, 17, 17, 17, 17, 17, 17, 17|];
suc = [ { 4, 5, 6 },
       { 8 },
       { 29 },
       { 16, 19 },
       { 7, 10, 12 },
       { 23 },
       { 15, 18 },
       { 9, 11, 17 },
       { 13 },
       { 14, 15, 23 },
       { 27 },
       { 20 },
       { 18, 25 },
       { 27 },
       { 19 },
       { 21 },
       { 27 },
       { 26, 28 },
       { 30 },
       { 28, 29 },
       { 22, 24, 26 },
       { 25 },
       { 24 },
       { 29 },
       { 30 },
       { 30 },
       { 28 },
       {  },
       {  },
       {  } ];
